Ni1 H2 O2
1.0
   1.5867209999999989    2.7265160000000002    0.0000000000000000
  -1.5867209999999989    2.7265160000000002    0.0000000000000000
   0.0000000000000000    0.3056290000000000    4.6086369999999999
Ni H O
1 2 2
direct
   0.0000000000000000    0.0000000000000000    0.0000000000000000 Ni
   0.6924520000000000    0.6924520000000000    0.5680149999999990 H
   0.3075480000000000    0.3075480000000000    0.4319850000000000 H
   0.6806700000000001    0.6806700000000001    0.7788119999999999 O
   0.3193300000000000    0.3193300000000000    0.2211880000000000 O
